
;;; Relevant definitions

$SM_DEFS$

;;; Meta-level properties of models

; axiom: $eo_hash
; note: This is defined axiomatically.
(assert (! (forall ((x eo.Term))
  (=> (not (= x eo.Stuck))
    (and
      ((_ is eo.SmtTerm) ($eo_hash x))
      ((_ is sm.Numeral) (eo.SmtTerm.arg1 ($eo_hash x)))))) :named sm.hash_numeral))
(assert (! (forall ((x eo.Term) (y eo.Term))
  (=> (and (not (= x eo.Stuck)) (not (= y eo.Stuck))
    (= ($eo_hash x) ($eo_hash y))) (= x y))) :named sm.hash_injective))

; This axiom gives semantics to model lookups for partial functions
(assert (! (forall ((t sm.Term))
  ($smtx_model_lookup_predicate t))
  :named sm.model_lookup_predicate))

;;; The verification condition

$SMT_VC$
